certificates/rado_a15_c204_N53.cnf
c Rad2 upper bound instance: x1 + 15*x2 - x3 = 204, interval [1,53]
p cnf 53 370
1 7 14 0
-1 -7 -14 0
1 15 22 0
-1 -15 -22 0
1 16 37 0
-1 -16 -37 0
1 17 52 0
-1 -17 -52 0
2 8 14 0
-2 -8 -14 0
2 15 23 0
-2 -15 -23 0
2 16 38 0
-2 -16 -38 0
2 17 53 0
-2 -17 -53 0
3 9 14 0
-3 -9 -14 0
3 15 24 0
-3 -15 -24 0
3 16 39 0
-3 -16 -39 0
4 10 14 0
-4 -10 -14 0
4 15 25 0
-4 -15 -25 0
4 16 40 0
-4 -16 -40 0
5 11 14 0
-5 -11 -14 0
5 15 26 0
-5 -15 -26 0
5 16 41 0
-5 -16 -41 0
6 12 14 0
-6 -12 -14 0
6 15 27 0
-6 -15 -27 0
6 16 42 0
-6 -16 -42 0
7 13 14 0
-7 -13 -14 0
7 15 28 0
-7 -15 -28 0
7 16 43 0
-7 -16 -43 0
8 14 0
-8 -14 0
8 15 29 0
-8 -15 -29 0
8 16 44 0
-8 -16 -44 0
9 14 15 0
-9 -14 -15 0
9 15 30 0
-9 -15 -30 0
9 16 45 0
-9 -16 -45 0
1 10 13 0
-1 -10 -13 0
10 14 16 0
-10 -14 -16 0
10 15 31 0
-10 -15 -31 0
10 16 46 0
-10 -16 -46 0
2 11 13 0
-2 -11 -13 0
11 14 17 0
-11 -14 -17 0
11 15 32 0
-11 -15 -32 0
11 16 47 0
-11 -16 -47 0
3 12 13 0
-3 -12 -13 0
12 14 18 0
-12 -14 -18 0
12 15 33 0
-12 -15 -33 0
12 16 48 0
-12 -16 -48 0
4 13 0
-4 -13 0
13 14 19 0
-13 -14 -19 0
13 15 34 0
-13 -15 -34 0
13 16 49 0
-13 -16 -49 0
5 13 14 0
-5 -13 -14 0
14 20 0
-14 -20 0
14 15 35 0
-14 -15 -35 0
14 16 50 0
-14 -16 -50 0
6 13 15 0
-6 -13 -15 0
14 15 21 0
-14 -15 -21 0
15 36 0
-15 -36 0
15 16 51 0
-15 -16 -51 0
7 13 16 0
-7 -13 -16 0
14 16 22 0
-14 -16 -22 0
15 16 37 0
-15 -16 -37 0
16 52 0
-16 -52 0
8 13 17 0
-8 -13 -17 0
14 17 23 0
-14 -17 -23 0
15 17 38 0
-15 -17 -38 0
16 17 53 0
-16 -17 -53 0
9 13 18 0
-9 -13 -18 0
14 18 24 0
-14 -18 -24 0
15 18 39 0
-15 -18 -39 0
10 13 19 0
-10 -13 -19 0
14 19 25 0
-14 -19 -25 0
15 19 40 0
-15 -19 -40 0
11 13 20 0
-11 -13 -20 0
14 20 26 0
-14 -20 -26 0
15 20 41 0
-15 -20 -41 0
12 13 21 0
-12 -13 -21 0
14 21 27 0
-14 -21 -27 0
15 21 42 0
-15 -21 -42 0
13 22 0
-13 -22 0
14 22 28 0
-14 -22 -28 0
15 22 43 0
-15 -22 -43 0
13 14 23 0
-13 -14 -23 0
14 23 29 0
-14 -23 -29 0
15 23 44 0
-15 -23 -44 0
13 15 24 0
-13 -15 -24 0
14 24 30 0
-14 -24 -30 0
15 24 45 0
-15 -24 -45 0
1 12 25 0
-1 -12 -25 0
13 16 25 0
-13 -16 -25 0
14 25 31 0
-14 -25 -31 0
15 25 46 0
-15 -25 -46 0
2 12 26 0
-2 -12 -26 0
13 17 26 0
-13 -17 -26 0
14 26 32 0
-14 -26 -32 0
15 26 47 0
-15 -26 -47 0
3 12 27 0
-3 -12 -27 0
13 18 27 0
-13 -18 -27 0
14 27 33 0
-14 -27 -33 0
15 27 48 0
-15 -27 -48 0
4 12 28 0
-4 -12 -28 0
13 19 28 0
-13 -19 -28 0
14 28 34 0
-14 -28 -34 0
15 28 49 0
-15 -28 -49 0
5 12 29 0
-5 -12 -29 0
13 20 29 0
-13 -20 -29 0
14 29 35 0
-14 -29 -35 0
15 29 50 0
-15 -29 -50 0
6 12 30 0
-6 -12 -30 0
13 21 30 0
-13 -21 -30 0
14 30 36 0
-14 -30 -36 0
15 30 51 0
-15 -30 -51 0
7 12 31 0
-7 -12 -31 0
13 22 31 0
-13 -22 -31 0
14 31 37 0
-14 -31 -37 0
15 31 52 0
-15 -31 -52 0
8 12 32 0
-8 -12 -32 0
13 23 32 0
-13 -23 -32 0
14 32 38 0
-14 -32 -38 0
15 32 53 0
-15 -32 -53 0
9 12 33 0
-9 -12 -33 0
13 24 33 0
-13 -24 -33 0
14 33 39 0
-14 -33 -39 0
10 12 34 0
-10 -12 -34 0
13 25 34 0
-13 -25 -34 0
14 34 40 0
-14 -34 -40 0
11 12 35 0
-11 -12 -35 0
13 26 35 0
-13 -26 -35 0
14 35 41 0
-14 -35 -41 0
12 36 0
-12 -36 0
13 27 36 0
-13 -27 -36 0
14 36 42 0
-14 -36 -42 0
12 13 37 0
-12 -13 -37 0
13 28 37 0
-13 -28 -37 0
14 37 43 0
-14 -37 -43 0
12 14 38 0
-12 -14 -38 0
13 29 38 0
-13 -29 -38 0
14 38 44 0
-14 -38 -44 0
12 15 39 0
-12 -15 -39 0
13 30 39 0
-13 -30 -39 0
14 39 45 0
-14 -39 -45 0
1 11 40 0
-1 -11 -40 0
12 16 40 0
-12 -16 -40 0
13 31 40 0
-13 -31 -40 0
14 40 46 0
-14 -40 -46 0
2 11 41 0
-2 -11 -41 0
12 17 41 0
-12 -17 -41 0
13 32 41 0
-13 -32 -41 0
14 41 47 0
-14 -41 -47 0
3 11 42 0
-3 -11 -42 0
12 18 42 0
-12 -18 -42 0
13 33 42 0
-13 -33 -42 0
14 42 48 0
-14 -42 -48 0
4 11 43 0
-4 -11 -43 0
12 19 43 0
-12 -19 -43 0
13 34 43 0
-13 -34 -43 0
14 43 49 0
-14 -43 -49 0
5 11 44 0
-5 -11 -44 0
12 20 44 0
-12 -20 -44 0
13 35 44 0
-13 -35 -44 0
14 44 50 0
-14 -44 -50 0
6 11 45 0
-6 -11 -45 0
12 21 45 0
-12 -21 -45 0
13 36 45 0
-13 -36 -45 0
14 45 51 0
-14 -45 -51 0
7 11 46 0
-7 -11 -46 0
12 22 46 0
-12 -22 -46 0
13 37 46 0
-13 -37 -46 0
14 46 52 0
-14 -46 -52 0
8 11 47 0
-8 -11 -47 0
12 23 47 0
-12 -23 -47 0
13 38 47 0
-13 -38 -47 0
14 47 53 0
-14 -47 -53 0
9 11 48 0
-9 -11 -48 0
12 24 48 0
-12 -24 -48 0
13 39 48 0
-13 -39 -48 0
10 11 49 0
-10 -11 -49 0
12 25 49 0
-12 -25 -49 0
13 40 49 0
-13 -40 -49 0
11 50 0
-11 -50 0
12 26 50 0
-12 -26 -50 0
13 41 50 0
-13 -41 -50 0
11 12 51 0
-11 -12 -51 0
12 27 51 0
-12 -27 -51 0
13 42 51 0
-13 -42 -51 0
11 13 52 0
-11 -13 -52 0
12 28 52 0
-12 -28 -52 0
13 43 52 0
-13 -43 -52 0
11 14 53 0
-11 -14 -53 0
12 29 53 0
-12 -29 -53 0
13 44 53 0
-13 -44 -53 0
