certificates/rado_a15_c204_N53.drat
11 16 -53 0
16 -53 0
d 11 16 -53 0
50 -53 0
-16 -53 0
d -17 -16 -53 0
-53 0
-50 0
11 0
16 0
-52 0
-47 0
14 0
-8 0
-20 0
-5 0
-17 0
-10 0
-22 0
13 0
1 0
2 0
-4 0
0
